5 5
1 96 2 29 0 73 3 7 4 58
4 76 2 60 0 51 1 95 3 82
4 92 1 50 2 21 3 9 0 34
1 34 0 47 4 24 3 80 2 28
3 46 1 51 0 99 2 6 4 63
-1
0 1 3 4 5
0 2 3 5
0 2 4 5
0 2 5
0 2 3 5
-2
98 223 314 287
175 287 436
145 254 212
109 285
99 299 392

424 7
16 22 7 2 14
15 21 0 11 8
6 19 1 23 12
20 18 3 13 9
5 17 10 24 4
